100 10
596 85
417 616
274 486
699 166
636 556
624 488
289 469
813 514
497 324
293 398
604 380
766 261
266 487
422 677
231 150
494 354
561 217
643 458
722 599
486 506
561 435
567 170
499 436
194 406
435 321
520 457
423 624
486 406
705 424
902 631
159 581
464 193
509 330
327 516
385 748
455 456
596 333
715 851
158 762
329 80
397 438
231 215
470 733
756 250
639 158
450 455
528 303
154 61
307 713
593 354
322 349
516 386
146 546
540 689
495 419
693 423
349 361
172 761
158 274
276 477
465 208
601 522
342 649
608 381
260 457
473 309
125 551
393 777
614 77
136 357
709 647
90 403
335 269
804 528
363 281
456 797
326 185
697 182
369 520
531 509
413 616
210 344
89 387
199 331
281 611
477 826
480 244
623 868
414 454
536 603
479 444
723 243
556 896
486 611
360 770
692 226
540 786
391 526
863 564
522 196
